N = 8;
H = 5;
T = 2;

avail = array3d(1..N, 1..H, 1..T, [4, 9, 1, 9, 5, 6, 0, 1, 5, 3, 7, 4, 1, 9, 6, 6, 5, 6, 1, 5, 6, 3, 3, 7, 10, 0, 5, 5, 8, 3, 10, 0, 1, 10, 7, 9, 5, 0, 1, 9, 8, 4, 1, 9, 4, 2, 8, 8, 6, 3, 2, 7, 7, 8, 0, 9, 7, 8, 7, 0, 4, 10, 8, 3, 1, 2, 8, 4, 2, 8, 3, 3, 6, 2, 9, 9, 7, 0, 0, 7]);

r = array2d(1..H, 1..T, [3, 2, 2, 1, 4, 4, 3, 3, 1, 2]);
